NAME : ftv55.tour
COMMENT : Optimum tour for ftv55.tsp (Length = 1608)
TYPE : TOUR
DIMENSION : 112
TOUR_SECTION  
94
38
68
12
95
39
76
20
77
21
97
41
75
19
96
40
67
11
108
52
71
15
69
13
72
16
73
17
74
18
109
53
82
26
81
25
99
43
78
22
79
23
98
42
107
51
80
24
111
55
84
28
106
50
102
46
87
31
103
47
112
56
91
35
58
2
60
4
105
49
88
32
104
48
101
45
85
29
110
54
100
44
86
30
83
27
57
1
90
34
59
3
70
14
92
36
61
5
62
6
63
7
64
8
89
33
65
9
93
37
66
10
-1
EOF
